This is Ipopt version 3.10.1, running with linear solver mumps.

Number of nonzeros in equality constraint Jacobian...:      177
Number of nonzeros in inequality constraint Jacobian.:        0
Number of nonzeros in Lagrangian Hessian.............:     3324

Total number of variables............................:       90
                     variables with only lower bounds:        0
                variables with lower and upper bounds:       90
                     variables with only upper bounds:        0
Total number of equality constraints.................:       59
Total number of inequality constraints...............:        0
        inequality constraints with only lower bounds:        0
   inequality constraints with lower and upper bounds:        0
        inequality constraints with only upper bounds:        0

iter    objective    inf_pr   inf_du lg(mu)  ||d||  lg(rg) alpha_du alpha_pr  ls
   0 -4.4610184e-04 7.21e-11 2.92e-04  -1.0 0.00e+00    -  0.00e+00 0.00e+00   0
   1 -4.3722980e-04 2.22e-16 5.07e-04  -1.7 1.98e-02    -  9.91e-01 1.00e+00f  1
   2 -4.2219733e-04 2.22e-16 2.30e-06  -2.5 4.31e-02    -  1.00e+00 1.00e+00f  1
   3 -4.3239275e-04 5.31e-12 2.40e-06  -3.8 1.93e-02    -  1.00e+00 1.00e+00f  1
   4 -4.1140055e-03 4.43e-12 6.45e-03  -5.7 1.76e+00    -  1.21e-01 1.65e-01f  1
   5 -4.1978894e-03 2.22e-16 2.01e-03  -5.7 2.00e-03   0.0 1.00e+00 1.00e+00f  1
   6 -4.5291401e-03 2.22e-16 2.12e-03  -5.7 6.27e-03  -0.5 1.00e+00 1.00e+00f  1
   7 -5.9279675e-03 2.22e-16 3.03e-03  -5.7 2.47e-02  -1.0 1.00e+00 8.78e-01f  1
   8 -6.5964847e-03 3.57e-13 5.35e-02  -5.7 1.51e+00  -1.4 3.38e-01 5.68e-03f  1
   9 -6.5922036e-03 3.56e-13 2.90e-02  -5.7 1.98e-01  -1.9 3.63e-01 4.88e-04f 12
iter    objective    inf_pr   inf_du lg(mu)  ||d||  lg(rg) alpha_du alpha_pr  ls
  10 -7.4345553e-03 9.38e-13 3.57e-03  -5.7 1.33e-02  -0.6 1.00e+00 8.07e-01f  1
  11 -8.8672769e-03 7.26e-13 7.03e-03  -5.7 7.43e-02  -1.1 1.00e+00 2.26e-01f  1
  12 -9.2274832e-03 5.96e-13 5.57e-03  -5.7 2.30e-02  -0.6 1.00e+00 1.79e-01f  1
  13 -1.1208429e-02 5.12e-13 1.75e-02  -5.7 1.39e-01  -1.1 1.00e+00 1.40e-01f  1
  14 -1.1206063e-02 5.12e-13 1.01e-02  -5.7 2.03e-01  -1.6 1.48e-01 1.22e-04f 14
  15 -1.4115761e-02 4.72e-13 4.90e-02  -5.7 3.41e-01  -1.2 1.00e+00 7.88e-02f  1
  16 -1.4969062e-02 8.82e-13 1.87e-02  -5.7 5.21e-02  -0.7 1.00e+00 1.35e-01f  1
  17 -1.7543969e-02 2.13e-12 8.13e-02  -5.7 8.53e-01  -1.2 5.23e-01 2.90e-02f  1
  18 -2.4892028e-02 4.53e-12 1.13e-02  -5.7 8.54e-02  -0.8 1.00e+00 6.95e-01f  1
  19 -3.0050840e-02 4.27e-13 1.44e-02  -5.7 3.45e-02  -0.4 1.00e+00 9.06e-01f  1
iter    objective    inf_pr   inf_du lg(mu)  ||d||  lg(rg) alpha_du alpha_pr  ls
  20 -3.0916642e-02 8.98e-13 1.05e-01  -5.7 3.02e-01  -0.8 1.00e+00 1.60e-02f  1
  21 -1.2849337e-02 5.58e-13 1.30e-01  -5.7 5.00e-01  -1.3 6.08e-02 3.79e-01h  1
  22 -1.6808553e-02 2.22e-16 7.43e-03  -5.7 5.89e-02  -0.9 1.00e+00 1.00e+00F  1
  23 -1.7889081e-02 6.03e-13 8.09e-02  -5.7 9.17e-01  -1.4 5.29e-01 1.46e-02f  1
  24 -2.7475326e-02 2.02e-14 1.07e-02  -5.7 1.02e-01  -0.9 1.00e+00 9.67e-01f  1
  25 -1.9673840e-02 1.65e-14 1.58e-02  -5.7 1.03e+00  -1.4 3.30e-02 1.76e-01h  1
  26 -1.9735207e-02 1.64e-14 3.93e-02  -5.7 1.17e-01  -1.0 1.00e+00 8.33e-03f  1
  27 -1.1728850e-02 1.64e-14 3.85e-02  -5.7 5.66e+02  -1.5 1.63e-04 4.02e-04h  1
  28 -1.1716484e-02 1.63e-14 3.84e-02  -5.7 2.98e+01  -1.0 1.13e-04 3.10e-05f  8
  29 -1.1707717e-02 1.62e-14 3.82e-02  -5.7 1.45e+01  -1.5 3.78e-03 4.33e-05f 10
iter    objective    inf_pr   inf_du lg(mu)  ||d||  lg(rg) alpha_du alpha_pr  ls
  30 -1.1781544e-02 1.60e-14 2.19e-02  -5.7 7.43e-02  -1.1 8.29e-01 1.96e-02f  1
  31 -1.4744148e-02 1.29e-14 2.62e-02  -5.7 3.21e-01  -1.6 1.00e+00 1.88e-01f  1
  32 -1.9983461e-02 1.11e-15 7.06e-03  -5.7 9.42e-02  -1.1 8.45e-01 1.00e+00f  1
  33 -2.1485853e-02 1.78e-15 7.15e-03  -5.7 1.01e+02  -1.6 4.48e-04 7.06e-04f  1
  34 -2.4906823e-02 1.33e-15 1.89e-02  -5.7 1.67e-01  -1.2 1.00e+00 2.71e-01f  1
  35 -2.7956052e-02 6.66e-16 7.88e-03  -5.7 4.77e-02  -0.8 1.00e+00 1.00e+00f  1
  36 -3.2166383e-02 2.40e-12 1.04e-02  -5.7 3.93e-01  -1.2 6.86e-02 1.26e-01f  1
  37 -3.6968140e-02 9.98e-13 1.29e-02  -5.7 8.32e-02  -0.8 1.00e+00 5.84e-01f  1
  38 -4.5572318e-02 5.41e-12 1.57e-02  -5.7 1.27e+00  -1.3 1.52e-01 7.49e-02f  1
  39 -5.0362766e-02 7.17e-12 3.26e-02  -5.7 1.46e-01  -0.9 1.00e+00 2.88e-01f  1
iter    objective    inf_pr   inf_du lg(mu)  ||d||  lg(rg) alpha_du alpha_pr  ls
  40 -5.0908440e-02 7.34e-12 5.29e-02  -5.7 1.59e+00  -1.3 8.96e-02 3.15e-03f  1
  41 -5.5419542e-02 6.65e-12 3.08e-02  -5.7 1.29e-01  -0.9 1.00e+00 3.59e-01f  1
  42 -6.6023536e-02 5.32e-12 2.16e-02  -5.7 6.07e-01  -1.4 1.31e-01 2.00e-01f  1
  43 -6.7190503e-02 6.10e-12 3.78e-02  -5.7 2.06e-01  -1.0 4.73e-01 4.05e-02f  1
  44 -6.8029243e-02 6.04e-12 5.26e-02  -5.7 8.64e-01  -1.4 1.08e-01 1.02e-02f  1
  45 -7.5881918e-02 4.30e-12 3.61e-02  -5.7 2.44e-01  -1.0 4.20e-01 2.89e-01f  1
  46 -7.7728760e-02 1.00e-11 3.88e-02  -5.7 3.72e-02  -0.6 1.00e+00 4.72e-01f  1
  47 -8.3195858e-02 1.06e-11 4.53e-02  -5.7 3.95e-01  -1.1 2.49e-01 1.00e-01f  1
  48 -8.3191960e-02 1.06e-11 4.51e-02  -5.7 4.23e-01  -1.6 4.14e-03 1.00e-04f 14
  49 -8.3186674e-02 1.06e-11 3.82e-02  -5.7 5.05e+01  -1.1 3.21e-03 6.86e-07f 13
iter    objective    inf_pr   inf_du lg(mu)  ||d||  lg(rg) alpha_du alpha_pr  ls
  50 -8.8056508e-02 6.04e-12 2.81e-02  -5.7 6.62e-02  -0.7 1.00e+00 4.30e-01f  1
  51 -1.1707185e-01 5.50e-12 5.72e-02  -5.7 1.31e+00  -1.2 1.76e-01 8.93e-02f  1
  52 -1.4845023e-01 2.33e-11 3.43e-02  -5.7 1.75e-01  -0.8 7.40e-01 5.80e-01f  1
  53 -1.4845124e-01 2.33e-11 1.53e-01  -5.7 5.87e-01  -1.2 6.34e-01 3.14e-05f  2
  54 -2.3015914e-01 5.79e-11 1.30e-01  -5.7 1.18e+00  -0.8 4.10e-02 1.27e-01f  1
  55 -3.1014892e-01 4.78e-11 1.52e-01  -5.7 5.58e-01  -0.4 2.59e-01 1.74e-01f  1
  56 -3.1014453e-01 4.78e-11 1.20e-01  -5.7 3.08e-01  -0.9 1.00e-01 1.54e-05f 15
  57 -3.1015026e-01 4.78e-11 1.46e-01  -5.7 1.14e-01   0.5 4.87e-05 1.36e-04f  1
  58 -3.7719310e-01 3.48e-11 1.41e-01  -5.7 1.92e-01  -0.0 1.49e-01 2.72e-01f  1
  59 -3.7719283e-01 3.48e-11 2.74e-01  -5.7 4.26e-01  -0.5 2.19e-01 4.47e-07f 21
iter    objective    inf_pr   inf_du lg(mu)  ||d||  lg(rg) alpha_du alpha_pr  ls
  60 -4.1655089e-01 3.29e-11 1.56e-01  -5.7 4.77e-01  -0.1 2.79e-01 5.40e-02f  1
  61 -3.7111355e-01 3.00e-11 1.65e-01  -5.7 3.35e-01  -0.5 8.05e-02 8.91e-02h  1
  62 -4.4165845e-01 2.78e-11 1.02e+00  -5.7 6.50e-01  -0.1 1.00e+00 7.04e-02f  1
  63 -5.3281991e-01 1.32e-12 5.65e-01  -5.7 8.51e-02   0.3 6.38e-01 9.53e-01f  1
  64 -6.1881342e-01 1.27e-12 1.70e+00  -5.7 9.46e-01  -0.2 4.22e-01 3.86e-02f  1
  65 -5.6629886e-01 1.11e-12 1.50e+00  -5.7 3.95e-01  -0.6 1.19e-01 1.26e-01h  1
  66 -5.6629460e-01 1.11e-12 1.10e+00  -5.7 6.07e-01  -1.1 2.98e-01 5.56e-05f  9
  67 -5.9437277e-01 7.52e-13 6.72e-01  -5.7 5.76e-02   0.2 9.42e-01 3.21e-01f  1
  68 -7.6872946e-01 6.68e-13 3.17e+00  -5.7 7.82e-01  -0.3 1.00e+00 1.12e-01f  1
  69 -6.7989597e-01 4.00e-13 2.91e+00  -5.7 4.52e-01    -  1.55e-01 4.01e-01h  1
iter    objective    inf_pr   inf_du lg(mu)  ||d||  lg(rg) alpha_du alpha_pr  ls
  70 -6.8545231e-01 3.79e-13 2.54e+00  -5.7 1.97e-01    -  1.36e-01 5.25e-02f  1
  71 -6.8567958e-01 3.72e-13 2.99e+00  -5.7 6.67e+00  -0.7 4.51e-02 1.11e-04f  7
  72 -6.8571039e-01 8.73e-13 2.93e+00  -5.7 1.01e-01  -0.3 2.31e-02 8.31e-04f  5
  73 -6.8469484e-01 8.54e-13 2.67e+00  -5.7 1.74e-01    -  9.29e-02 2.25e-02h  1
  74 -6.8468999e-01 8.54e-13 2.50e+00  -5.7 1.68e-01    -  6.62e-02 1.12e-04f 13
  75 -6.8469143e-01 8.84e-13 2.25e+00  -5.7 2.77e-02   0.1 1.19e-01 1.02e-04f 12
  76 -6.7394712e-01 6.13e-13 2.09e+00  -5.7 1.68e-01    -  6.02e-02 3.07e-01h  1
  77 -6.7393952e-01 6.13e-13 1.35e+00  -5.7 9.65e-02    -  8.06e-01 5.66e-04f 11
  78 -6.7161297e-01 9.05e-14 2.00e-01  -5.7 9.75e-02    -  6.60e-01 8.52e-01h  1
  79 -6.7336629e-01 4.44e-16 1.56e-03  -5.7 2.28e-03    -  1.00e+00 9.97e-01f  1
iter    objective    inf_pr   inf_du lg(mu)  ||d||  lg(rg) alpha_du alpha_pr  ls
  80 -6.7338388e-01 1.33e-15 3.34e-01  -5.7 3.81e-05    -  8.78e-01 4.45e-01f  1
  81 -6.7338393e-01 3.93e-13 4.16e-01  -5.7 2.17e-05  -0.4 1.00e+00 2.56e-03f  9
  82 -6.7340582e-01 2.22e-16 3.57e-10  -5.7 1.78e-05    -  1.00e+00 1.00e+00f  1
  83 -6.7355326e-01 4.44e-16 4.24e-06  -8.6 2.90e-05  -0.8 1.00e+00 1.00e+00f  1
  84 -6.7355323e-01 1.79e-11 5.21e-06  -8.6 1.34e-05  -0.4 1.00e+00 1.00e+00h  1
  85 -6.7355323e-01 4.21e-12 7.10e-06  -8.6 6.85e-06   0.0 1.00e+00 1.00e+00h  1
  86 -6.7355325e-01 1.83e-13 3.57e-05  -8.6 1.03e-04  -0.5 1.00e+00 1.00e+00h  1
  87 -6.7355327e-01 4.88e-15 5.11e-05  -8.6 5.54e-05  -0.0 1.00e+00 1.00e+00h  1
  88 -6.7355810e-01 5.65e-14 5.22e-04  -8.6 1.69e-03  -0.5 1.00e+00 1.00e+00f  1
  89 -6.7356441e-01 3.21e-14 7.90e-04  -8.6 9.63e-04  -0.1 1.00e+00 1.00e+00f  1
iter    objective    inf_pr   inf_du lg(mu)  ||d||  lg(rg) alpha_du alpha_pr  ls
  90 -6.7356792e-01 1.38e-14 9.05e-04  -8.6 4.14e-04   0.3 1.00e+00 1.00e+00f  1
  91 -6.7359188e-01 6.68e-14 1.47e-03  -8.6 2.02e-03  -0.1 1.00e+00 1.00e+00f  1
  92 -6.7360601e-01 2.93e-14 1.72e-03  -8.6 8.86e-04   0.3 1.00e+00 1.00e+00f  1
  93 -6.7371855e-01 1.55e-13 3.07e-03  -8.6 4.71e-03  -0.2 1.00e+00 1.00e+00f  1
  94 -6.7379005e-01 6.91e-14 3.67e-03  -8.6 2.12e-03   0.2 1.00e+00 1.00e+00f  1
  95 -6.7449728e-01 4.15e-13 7.52e-03  -8.6 1.28e-02  -0.2 1.00e+00 1.00e+00f  1
  96 -6.7499828e-01 2.03e-13 9.26e-03  -8.6 6.01e-03   0.2 1.00e+00 1.00e+00f  1
  97 -6.8234943e-01 1.49e-12 2.49e-02  -8.6 4.48e-02  -0.3 1.00e+00 1.00e+00f  1
  98 -6.8896662e-01 9.65e-13 3.27e-02  -8.6 2.35e-02   0.1 1.00e+00 1.00e+00f  1
  99 -1.0000001e+00 1.18e-11 2.65e-01  -8.6 4.04e-01  -0.3 1.00e+00 7.28e-01f  1
iter    objective    inf_pr   inf_du lg(mu)  ||d||  lg(rg) alpha_du alpha_pr  ls
 100 -1.0000000e+00 1.18e-11 2.81e-01  -8.6 1.17e-01    -  1.00e+00 2.38e-07f 23
In iteration 100, 1 Slack too small, adjusting variable bound
 101 -1.0000002e+00 1.18e-11 3.00e-02  -8.6 5.04e-08    -  1.00e+00 8.70e-01h  1
 102 -1.0000001e+00 1.40e-11 6.06e-12  -8.6 1.74e-08    -  1.00e+00 1.00e+00h  1

Number of Iterations....: 102

                                   (scaled)                 (unscaled)
Objective...............:  -1.0000001105880749e+00   -1.0000001105880749e+00
Dual infeasibility......:   6.0573404650161433e-12    6.0573404650161433e-12
Constraint violation....:   1.3968382006623870e-11    1.3968382006623870e-11
Complementarity.........:   4.3611465512109011e-09    4.3611465512109011e-09
Overall NLP error.......:   4.3611465512109011e-09    4.3611465512109011e-09


Number of objective function evaluations             = 292
Number of objective gradient evaluations             = 103
Number of equality constraint evaluations            = 292
Number of inequality constraint evaluations          = 0
Number of equality constraint Jacobian evaluations   = 1
Number of inequality constraint Jacobian evaluations = 0
Number of Lagrangian Hessian evaluations             = 102
Total CPU secs in IPOPT (w/o function evaluations)   =      0.260
Total CPU secs in NLP function evaluations           =      3.850

EXIT: Optimal Solution Found.
